17	9	17	5	6	14	9	12	11	9
5	12	17	3	16	19	6	2	13	13
4	2	15	6	8	11	6	5	20	20
18	18	9	20	8	20	12	12	20	3
14	1	6	18	3	15	5	13	19	1
17	4	17	2	7	15	7	7	7	13
19	11	6	15	4	20	14	7	3	1
5	20	19	13	1	6	10	9	15	1
16	8	15	11	19	6	1	4	2	16
